100
32
21
6
18
1
19
27
20
17
19
20
21
23
4
2
2
16
18
24
2
2
6
7
1
19
10
10
19
23
20
4
20
1
7
20
24
29
14
8
13
15
1
23
13
14
23
15
2
3
2
32
18
6
4
12
23
22
24
25
2
22
22
10
22
12
13
18
23
28
24
3
21
6
30
15
10
18
2
7
12
1
9
19
14
4
20
4
11
3
13
8
13
14
15
10
12
4
4
10
13
22